SECTION Graph
Nodes 663
Edges 1154
E 1 2 5
E 2 3 5
E 3 4 5
E 4 5 5
E 5 6 5
E 6 7 5
E 7 8 5
E 8 9 5
E 9 10 5
E 10 11 5
E 11 12 5
E 12 13 5
E 13 14 5
E 14 15 5
E 15 16 5
E 16 17 5
E 17 18 5
E 18 19 5
E 19 20 5
E 20 21 5
E 21 22 5
E 22 23 5
E 23 24 5
E 24 25 5
E 25 26 5
E 26 27 5
E 27 28 5
E 28 29 5
E 29 30 5
E 30 31 5
E 31 32 5
E 32 33 5
E 33 34 5
E 34 35 5
E 35 36 5
E 36 37 5
E 37 38 5
E 38 39 5
E 1 40 13
E 2 41 13
E 5 44 13
E 6 45 13
E 7 46 13
E 9 47 13
E 10 48 13
E 11 49 13
E 12 50 13
E 13 51 13
E 14 52 13
E 15 53 13
E 16 54 13
E 17 55 13
E 18 56 13
E 19 57 13
E 20 58 13
E 21 59 13
E 22 60 13
E 23 61 13
E 24 62 13
E 25 63 13
E 26 64 13
E 27 65 13
E 28 66 13
E 29 67 13
E 30 68 13
E 31 69 13
E 32 70 13
E 33 71 13
E 34 72 13
E 35 73 13
E 36 74 13
E 37 75 13
E 38 76 13
E 39 77 13
E 40 41 5
E 41 42 5
E 42 43 5
E 43 44 5
E 44 45 5
E 45 46 5
E 47 48 5
E 48 49 5
E 49 50 5
E 50 51 5
E 51 52 5
E 52 53 5
E 53 54 5
E 54 55 5
E 55 56 5
E 56 57 5
E 57 58 5
E 58 59 5
E 59 60 5
E 60 61 5
E 61 62 5
E 62 63 5
E 63 64 5
E 64 65 5
E 65 66 5
E 66 67 5
E 67 68 5
E 68 69 5
E 69 70 5
E 70 71 5
E 71 72 5
E 72 73 5
E 73 74 5
E 74 75 5
E 75 76 5
E 76 77 5
E 40 78 13
E 42 79 13
E 43 80 13
E 46 83 13
E 47 84 13
E 50 87 13
E 53 90 13
E 54 91 13
E 55 92 13
E 56 93 13
E 58 94 13
E 59 95 13
E 60 96 13
E 61 97 13
E 62 98 13
E 63 99 13
E 64 100 13
E 65 101 13
E 66 102 13
E 68 104 13
E 70 105 13
E 73 108 13
E 74 109 13
E 75 110 13
E 76 111 13
E 77 112 13
E 79 80 5
E 80 81 5
E 81 82 5
E 82 83 5
E 84 85 5
E 85 86 5
E 86 87 5
E 87 88 5
E 88 89 5
E 89 90 5
E 90 91 5
E 91 92 5
E 92 93 5
E 94 95 5
E 95 96 5
E 96 97 5
E 97 98 5
E 98 99 5
E 99 100 5
E 100 101 5
E 101 102 5
E 102 103 5
E 103 104 5
E 105 106 5
E 106 107 5
E 107 108 5
E 108 109 5
E 109 110 5
E 110 111 5
E 111 112 5
E 78 113 13
E 79 114 13
E 80 115 13
E 82 117 13
E 83 118 13
E 84 120 13
E 85 121 13
E 86 122 13
E 87 123 13
E 88 124 13
E 90 125 13
E 91 126 13
E 93 128 13
E 94 129 13
E 95 130 13
E 96 131 13
E 97 132 13
E 98 133 13
E 100 135 13
E 101 136 13
E 102 137 13
E 103 138 13
E 104 139 13
E 105 140 13
E 108 143 13
E 109 144 13
E 110 145 13
E 112 147 13
E 114 115 5
E 115 116 5
E 116 117 5
E 117 118 5
E 118 119 5
E 119 120 5
E 120 121 5
E 121 122 5
E 122 123 5
E 123 124 5
E 125 126 5
E 126 127 5
E 127 128 5
E 129 130 5
E 130 131 5
E 131 132 5
E 132 133 5
E 133 134 5
E 134 135 5
E 135 136 5
E 136 137 5
E 137 138 5
E 138 139 5
E 140 141 5
E 141 142 5
E 142 143 5
E 143 144 5
E 144 145 5
E 145 146 5
E 146 147 5
E 113 148 13
E 114 150 13
E 115 151 13
E 118 154 13
E 119 155 13
E 120 156 13
E 122 157 13
E 123 158 13
E 124 159 13
E 125 160 13
E 126 161 13
E 127 162 13
E 128 163 13
E 129 165 13
E 130 166 13
E 131 167 13
E 132 168 13
E 133 169 13
E 136 172 13
E 137 173 13
E 138 174 13
E 139 175 13
E 140 177 13
E 142 179 13
E 143 180 13
E 144 181 13
E 145 182 13
E 146 183 13
E 147 184 13
E 148 149 5
E 149 150 5
E 150 151 5
E 151 152 5
E 152 153 5
E 153 154 5
E 154 155 5
E 155 156 5
E 157 158 5
E 158 159 5
E 160 161 5
E 161 162 5
E 162 163 5
E 163 164 5
E 164 165 5
E 165 166 5
E 166 167 5
E 167 168 5
E 168 169 5
E 169 170 5
E 170 171 5
E 171 172 5
E 172 173 5
E 173 174 5
E 174 175 5
E 175 176 5
E 176 177 5
E 177 178 5
E 178 179 5
E 179 180 5
E 180 181 5
E 181 182 5
E 182 183 5
E 183 184 5
E 148 185 13
E 149 186 13
E 150 187 13
E 151 188 13
E 154 191 13
E 155 192 13
E 156 193 13
E 157 194 13
E 158 195 13
E 159 196 13
E 160 198 13
E 161 199 13
E 162 200 13
E 163 201 13
E 164 202 13
E 165 203 13
E 166 204 13
E 167 205 13
E 168 206 13
E 171 209 13
E 173 210 13
E 174 211 13
E 175 212 13
E 176 213 13
E 177 214 13
E 178 215 13
E 181 218 13
E 182 219 13
E 183 220 13
E 184 221 13
E 185 186 5
E 186 187 5
E 187 188 5
E 188 189 5
E 189 190 5
E 190 191 5
E 191 192 5
E 192 193 5
E 194 195 5
E 195 196 5
E 196 197 5
E 197 198 5
E 198 199 5
E 199 200 5
E 200 201 5
E 201 202 5
E 202 203 5
E 203 204 5
E 204 205 5
E 205 206 5
E 206 207 5
E 207 208 5
E 208 209 5
E 210 211 5
E 211 212 5
E 212 213 5
E 213 214 5
E 214 215 5
E 215 216 5
E 216 217 5
E 217 218 5
E 218 219 5
E 219 220 5
E 220 221 5
E 185 222 13
E 186 223 13
E 187 224 13
E 188 225 13
E 189 226 13
E 190 227 13
E 193 230 13
E 194 232 13
E 195 233 13
E 196 234 13
E 197 235 13
E 198 236 13
E 199 237 13
E 200 238 13
E 201 239 13
E 203 241 13
E 204 242 13
E 205 243 13
E 207 244 13
E 208 245 13
E 209 246 13
E 210 247 13
E 211 248 13
E 212 249 13
E 213 250 13
E 214 251 13
E 215 252 13
E 216 253 13
E 219 256 13
E 221 257 13
E 222 223 5
E 223 224 5
E 224 225 5
E 225 226 5
E 226 227 5
E 227 228 5
E 228 229 5
E 229 230 5
E 230 231 5
E 231 232 5
E 232 233 5
E 233 234 5
E 234 235 5
E 235 236 5
E 236 237 5
E 237 238 5
E 238 239 5
E 239 240 5
E 240 241 5
E 241 242 5
E 242 243 5
E 244 245 5
E 245 246 5
E 247 248 5
E 248 249 5
E 249 250 5
E 250 251 5
E 251 252 5
E 252 253 5
E 253 254 5
E 254 255 5
E 255 256 5
E 222 258 13
E 223 259 13
E 224 260 13
E 225 261 13
E 226 262 13
E 227 263 13
E 228 264 13
E 229 265 13
E 230 266 13
E 231 267 13
E 232 268 13
E 233 269 13
E 236 272 13
E 239 275 13
E 242 278 13
E 243 279 13
E 244 280 13
E 245 281 13
E 246 282 13
E 247 284 13
E 248 285 13
E 249 286 13
E 251 287 13
E 252 288 13
E 253 289 13
E 254 290 13
E 255 291 13
E 256 292 13
E 257 293 13
E 258 259 5
E 259 260 5
E 260 261 5
E 261 262 5
E 262 263 5
E 263 264 5
E 264 265 5
E 265 266 5
E 266 267 5
E 267 268 5
E 268 269 5
E 269 270 5
E 270 271 5
E 271 272 5
E 272 273 5
E 273 274 5
E 274 275 5
E 275 276 5
E 276 277 5
E 277 278 5
E 278 279 5
E 280 281 5
E 281 282 5
E 282 283 5
E 283 284 5
E 284 285 5
E 285 286 5
E 287 288 5
E 288 289 5
E 289 290 5
E 290 291 5
E 291 292 5
E 258 294 13
E 260 295 13
E 261 296 13
E 262 297 13
E 263 298 13
E 264 299 13
E 265 300 13
E 266 301 13
E 267 302 13
E 268 303 13
E 269 304 13
E 270 305 13
E 271 306 13
E 272 307 13
E 273 308 13
E 274 309 13
E 275 310 13
E 276 311 13
E 277 312 13
E 278 313 13
E 279 314 13
E 280 316 13
E 281 317 13
E 282 318 13
E 283 319 13
E 284 320 13
E 285 321 13
E 286 322 13
E 287 323 13
E 288 324 13
E 289 325 13
E 290 326 13
E 291 327 13
E 292 328 13
E 293 330 13
E 295 296 5
E 296 297 5
E 297 298 5
E 298 299 5
E 299 300 5
E 300 301 5
E 301 302 5
E 302 303 5
E 303 304 5
E 304 305 5
E 305 306 5
E 306 307 5
E 307 308 5
E 308 309 5
E 309 310 5
E 310 311 5
E 311 312 5
E 312 313 5
E 313 314 5
E 314 315 5
E 315 316 5
E 316 317 5
E 317 318 5
E 318 319 5
E 319 320 5
E 320 321 5
E 321 322 5
E 323 324 5
E 324 325 5
E 325 326 5
E 326 327 5
E 327 328 5
E 328 329 5
E 329 330 5
E 294 331 13
E 295 332 13
E 296 333 13
E 297 334 13
E 298 335 13
E 299 336 13
E 300 337 13
E 301 338 13
E 302 339 13
E 303 340 13
E 304 341 13
E 305 342 13
E 306 343 13
E 307 344 13
E 308 345 13
E 309 346 13
E 310 347 13
E 311 348 13
E 312 349 13
E 313 350 13
E 314 351 13
E 315 352 13
E 316 353 13
E 317 354 13
E 320 357 13
E 321 358 13
E 322 359 13
E 323 361 13
E 324 362 13
E 325 363 13
E 326 364 13
E 327 365 13
E 328 366 13
E 329 367 13
E 330 368 13
E 332 333 5
E 333 334 5
E 334 335 5
E 335 336 5
E 336 337 5
E 337 338 5
E 338 339 5
E 339 340 5
E 340 341 5
E 341 342 5
E 342 343 5
E 343 344 5
E 344 345 5
E 345 346 5
E 346 347 5
E 347 348 5
E 348 349 5
E 349 350 5
E 350 351 5
E 351 352 5
E 352 353 5
E 353 354 5
E 354 355 5
E 355 356 5
E 356 357 5
E 357 358 5
E 358 359 5
E 359 360 5
E 360 361 5
E 361 362 5
E 362 363 5
E 363 364 5
E 364 365 5
E 365 366 5
E 366 367 5
E 367 368 5
E 331 369 13
E 332 371 13
E 333 372 13
E 334 373 13
E 335 374 13
E 336 375 13
E 337 376 13
E 338 377 13
E 339 378 13
E 340 379 13
E 341 380 13
E 342 381 13
E 343 382 13
E 344 383 13
E 345 384 13
E 347 385 13
E 348 386 13
E 349 387 13
E 350 388 13
E 351 389 13
E 352 390 13
E 353 391 13
E 354 392 13
E 355 393 13
E 356 394 13
E 357 395 13
E 358 396 13
E 359 397 13
E 360 398 13
E 361 399 13
E 362 400 13
E 363 401 13
E 364 402 13
E 365 403 13
E 366 404 13
E 367 405 13
E 368 406 13
E 369 370 5
E 370 371 5
E 371 372 5
E 372 373 5
E 373 374 5
E 374 375 5
E 375 376 5
E 376 377 5
E 377 378 5
E 378 379 5
E 379 380 5
E 380 381 5
E 381 382 5
E 382 383 5
E 383 384 5
E 385 386 5
E 386 387 5
E 387 388 5
E 388 389 5
E 389 390 5
E 390 391 5
E 391 392 5
E 392 393 5
E 393 394 5
E 394 395 5
E 395 396 5
E 396 397 5
E 397 398 5
E 398 399 5
E 399 400 5
E 400 401 5
E 401 402 5
E 402 403 5
E 403 404 5
E 404 405 5
E 405 406 5
E 369 407 13
E 370 408 13
E 371 409 13
E 372 410 13
E 373 411 13
E 374 412 13
E 375 413 13
E 376 414 13
E 377 415 13
E 378 416 13
E 379 417 13
E 380 418 13
E 381 419 13
E 382 420 13
E 383 421 13
E 384 422 13
E 385 423 13
E 386 424 13
E 387 425 13
E 389 427 13
E 391 428 13
E 393 430 13
E 394 431 13
E 395 432 13
E 396 433 13
E 400 434 13
E 401 435 13
E 402 436 13
E 403 437 13
E 404 438 13
E 405 439 13
E 406 440 13
E 407 408 5
E 408 409 5
E 409 410 5
E 410 411 5
E 411 412 5
E 412 413 5
E 413 414 5
E 414 415 5
E 415 416 5
E 416 417 5
E 417 418 5
E 418 419 5
E 419 420 5
E 420 421 5
E 421 422 5
E 423 424 5
E 424 425 5
E 425 426 5
E 426 427 5
E 428 429 5
E 429 430 5
E 430 431 5
E 431 432 5
E 432 433 5
E 434 435 5
E 435 436 5
E 436 437 5
E 437 438 5
E 438 439 5
E 439 440 5
E 407 441 13
E 408 442 13
E 409 443 13
E 411 444 13
E 412 445 13
E 413 446 13
E 414 447 13
E 415 448 13
E 416 449 13
E 418 450 13
E 419 451 13
E 420 452 13
E 421 453 13
E 422 454 13
E 423 456 13
E 424 457 13
E 425 458 13
E 426 459 13
E 427 460 13
E 428 461 13
E 429 462 13
E 430 463 13
E 433 466 13
E 434 470 13
E 435 471 13
E 436 472 13
E 437 473 13
E 439 474 13
E 440 475 13
E 441 442 5
E 442 443 5
E 444 445 5
E 445 446 5
E 446 447 5
E 447 448 5
E 448 449 5
E 450 451 5
E 451 452 5
E 452 453 5
E 453 454 5
E 454 455 5
E 455 456 5
E 456 457 5
E 457 458 5
E 458 459 5
E 459 460 5
E 461 462 5
E 462 463 5
E 463 464 5
E 464 465 5
E 465 466 5
E 466 467 5
E 467 468 5
E 468 469 5
E 469 470 5
E 470 471 5
E 471 472 5
E 472 473 5
E 474 475 5
E 441 476 13
E 442 477 13
E 443 478 13
E 444 479 13
E 445 480 13
E 446 481 13
E 448 482 13
E 449 483 13
E 450 484 13
E 451 485 13
E 452 486 13
E 453 487 13
E 454 488 13
E 455 489 13
E 456 490 13
E 458 492 13
E 459 493 13
E 460 494 13
E 461 496 13
E 462 497 13
E 463 498 13
E 464 499 13
E 465 500 13
E 466 501 13
E 467 502 13
E 468 503 13
E 469 504 13
E 470 505 13
E 471 506 13
E 472 507 13
E 473 508 13
E 474 509 13
E 475 510 13
E 476 477 5
E 477 478 5
E 479 480 5
E 480 481 5
E 482 483 5
E 484 485 5
E 485 486 5
E 486 487 5
E 487 488 5
E 488 489 5
E 489 490 5
E 490 491 5
E 491 492 5
E 492 493 5
E 493 494 5
E 494 495 5
E 495 496 5
E 496 497 5
E 497 498 5
E 498 499 5
E 499 500 5
E 500 501 5
E 501 502 5
E 502 503 5
E 503 504 5
E 504 505 5
E 505 506 5
E 506 507 5
E 507 508 5
E 509 510 5
E 476 511 13
E 477 512 13
E 478 513 13
E 479 515 13
E 480 516 13
E 481 517 13
E 482 518 13
E 483 519 13
E 484 521 13
E 485 522 13
E 486 523 13
E 489 526 13
E 491 527 13
E 492 528 13
E 493 529 13
E 494 530 13
E 495 531 13
E 496 532 13
E 497 533 13
E 498 534 13
E 499 535 13
E 500 536 13
E 501 537 13
E 502 538 13
E 503 539 13
E 504 540 13
E 505 541 13
E 506 542 13
E 507 543 13
E 508 544 13
E 509 546 13
E 510 547 13
E 511 512 5
E 512 513 5
E 513 514 5
E 514 515 5
E 515 516 5
E 516 517 5
E 518 519 5
E 519 520 5
E 520 521 5
E 521 522 5
E 522 523 5
E 523 524 5
E 524 525 5
E 525 526 5
E 527 528 5
E 528 529 5
E 529 530 5
E 530 531 5
E 531 532 5
E 532 533 5
E 533 534 5
E 534 535 5
E 535 536 5
E 536 537 5
E 537 538 5
E 538 539 5
E 539 540 5
E 540 541 5
E 541 542 5
E 542 543 5
E 543 544 5
E 544 545 5
E 545 546 5
E 546 547 5
E 511 548 13
E 512 549 13
E 513 550 13
E 514 551 13
E 515 552 13
E 516 553 13
E 517 554 13
E 518 556 13
E 519 557 13
E 520 558 13
E 521 559 13
E 522 560 13
E 523 561 13
E 524 562 13
E 525 563 13
E 526 564 13
E 527 565 13
E 528 566 13
E 529 567 13
E 530 568 13
E 532 570 13
E 533 571 13
E 534 572 13
E 535 573 13
E 536 574 13
E 537 575 13
E 538 576 13
E 539 577 13
E 540 578 13
E 541 579 13
E 542 580 13
E 543 581 13
E 544 582 13
E 545 583 13
E 546 584 13
E 547 585 13
E 548 549 5
E 549 550 5
E 550 551 5
E 551 552 5
E 552 553 5
E 553 554 5
E 554 555 5
E 555 556 5
E 556 557 5
E 557 558 5
E 558 559 5
E 559 560 5
E 560 561 5
E 561 562 5
E 562 563 5
E 563 564 5
E 565 566 5
E 566 567 5
E 567 568 5
E 568 569 5
E 569 570 5
E 570 571 5
E 571 572 5
E 572 573 5
E 573 574 5
E 574 575 5
E 575 576 5
E 576 577 5
E 577 578 5
E 578 579 5
E 579 580 5
E 580 581 5
E 581 582 5
E 582 583 5
E 583 584 5
E 584 585 5
E 548 586 13
E 549 587 13
E 552 590 13
E 553 591 13
E 554 592 13
E 555 593 13
E 556 594 13
E 557 595 13
E 558 596 13
E 561 599 13
E 562 600 13
E 563 601 13
E 564 602 13
E 565 604 13
E 566 605 13
E 567 606 13
E 568 607 13
E 569 608 13
E 570 609 13
E 571 610 13
E 572 611 13
E 573 612 13
E 574 613 13
E 575 614 13
E 576 615 13
E 577 616 13
E 578 617 13
E 579 618 13
E 580 619 13
E 581 620 13
E 582 621 13
E 583 622 13
E 584 623 13
E 585 624 13
E 586 587 5
E 587 588 5
E 588 589 5
E 589 590 5
E 590 591 5
E 591 592 5
E 592 593 5
E 593 594 5
E 594 595 5
E 595 596 5
E 596 597 5
E 597 598 5
E 598 599 5
E 599 600 5
E 600 601 5
E 601 602 5
E 602 603 5
E 603 604 5
E 604 605 5
E 605 606 5
E 606 607 5
E 607 608 5
E 608 609 5
E 609 610 5
E 610 611 5
E 611 612 5
E 612 613 5
E 613 614 5
E 614 615 5
E 615 616 5
E 616 617 5
E 617 618 5
E 618 619 5
E 619 620 5
E 620 621 5
E 621 622 5
E 622 623 5
E 623 624 5
E 586 625 13
E 587 626 13
E 588 627 13
E 589 628 13
E 590 629 13
E 591 630 13
E 592 631 13
E 593 632 13
E 594 633 13
E 595 634 13
E 596 635 13
E 597 636 13
E 598 637 13
E 599 638 13
E 602 641 13
E 603 642 13
E 604 643 13
E 605 644 13
E 606 645 13
E 607 646 13
E 610 649 13
E 611 650 13
E 612 651 13
E 613 652 13
E 614 653 13
E 615 654 13
E 616 655 13
E 617 656 13
E 618 657 13
E 619 658 13
E 620 659 13
E 621 660 13
E 622 661 13
E 623 662 13
E 624 663 13
E 625 626 5
E 626 627 5
E 627 628 5
E 628 629 5
E 629 630 5
E 630 631 5
E 631 632 5
E 632 633 5
E 633 634 5
E 634 635 5
E 635 636 5
E 636 637 5
E 637 638 5
E 638 639 5
E 639 640 5
E 640 641 5
E 641 642 5
E 642 643 5
E 643 644 5
E 644 645 5
E 645 646 5
E 646 647 5
E 647 648 5
E 648 649 5
E 649 650 5
E 650 651 5
E 651 652 5
E 652 653 5
E 653 654 5
E 654 655 5
E 655 656 5
E 656 657 5
E 657 658 5
E 658 659 5
E 659 660 5
E 660 661 5
E 661 662 5
E 662 663 5
END

SECTION Terminals
Terminals 11
T 8
T 41
T 57
T 69
T 89
T 121
T 172
T 206
T 220
T 250
T 609
END

SECTION Tree Decomposition
c We do not guarantee that this tree decomposition has minimum width.
s td 547 22 663
b 1 1 2 40
b 2 8 9 7
b 3 89 88 90
b 4 106 107 105
b 5 107 105 108
b 6 113 78 148
b 7 116 117 115
b 8 134 135 133
b 9 141 142 140
b 10 3 4 2
b 11 39 38 77
b 12 152 153 151
b 13 153 151 154
b 14 625 586 626
b 15 639 640 638
b 16 640 641 638
b 17 647 648 646
b 18 648 649 646
b 19 170 169 171
b 20 663 662 624
b 21 4 2 5
b 22 217 216 218
b 23 240 241 239
b 24 257 293 221
b 25 78 148 40
b 26 293 221 330
b 27 294 331 258
b 28 81 82 80
b 29 331 369 258
b 30 635 636 596 634
b 31 656 657 617 655
b 32 633 632 594 634
b 33 662 624 623 661
b 34 631 632 592 630
b 35 6 45 5 7
b 36 629 628 630 590
b 37 86 85 122 87
b 38 627 628 588 626
b 39 346 309 345 347
b 40 156 193 155 120
b 41 624 585 623 661
b 42 88 124 87 90
b 43 22 23 60 21
b 44 355 356 393 354
b 45 360 398 359 361
b 46 92 93 55 91
b 47 368 406 367 330
b 48 369 407 370 258
b 49 24 23 62 25
b 50 94 129 95 58
b 51 384 422 383 345
b 52 385 423 347 386
b 53 388 387 350 389
b 54 390 352 389 391
b 55 392 393 354 391
b 56 609 608 570 610
b 57 99 98 63 100
b 58 397 398 359 396
b 59 399 398 361 400
b 60 659 660 620 658
b 61 26 64 27 25
b 62 103 104 138 102
b 63 410 372 409 411
b 64 601 563 600 602
b 65 417 418 379 416
b 66 105 70 108 140
b 67 426 427 459 425
b 68 597 636 598 596
b 69 428 429 461 391
b 70 431 394 432 430
b 71 433 432 396 466
b 72 434 435 470 400
b 73 438 439 404 437
b 74 440 475 406 439
b 75 441 407 442 476
b 76 589 628 588 590
b 77 111 112 76 110
b 78 443 478 442 409
b 79 586 587 626 548
b 80 444 479 445 411
b 81 447 414 448 446
b 82 449 483 448 416
b 83 28 29 66 27
b 84 450 418 451 484
b 85 114 79 115 150
b 86 455 456 454 489
b 87 457 424 456 458
b 88 460 427 459 494
b 89 464 465 499 463
b 90 117 82 115 118
b 91 467 468 502 466
b 92 469 468 504 470
b 93 2 41 5 40
b 94 30 29 31 68
b 95 473 508 437 472
b 96 569 608 568 570
b 97 119 155 118 120
b 98 474 509 475 439
b 99 481 517 480 446
b 100 565 527 566 604
b 101 564 526 563 602
b 102 121 85 122 120
b 103 482 518 483 448
b 104 487 488 486 453
b 105 560 559 561 522
b 106 490 456 491 489
b 107 495 531 494 496
b 108 125 126 90 160
b 109 32 33 70 31
b 110 555 593 554 556
b 111 127 126 128 162
b 112 510 509 475 547
b 113 511 548 512 476
b 114 514 551 513 515
b 115 520 521 558 519
b 116 524 525 562 523
b 117 9 10 47 7
b 118 34 33 72 35
b 119 135 133 100 136
b 120 545 583 544 546
b 121 550 551 549 513
b 122 139 104 138 175
b 123 36 37 35 74
b 124 142 143 179 140
b 125 146 183 147 145
b 126 148 149 185 40
b 127 645 644 606 646
b 128 41 5 42 40
b 129 654 653 615 655
b 130 603 642 604 602
b 131 38 77 76 37
b 132 157 194 158 122
b 133 651 650 612 652
b 134 159 124 158 196
b 135 649 650 610 646
b 136 164 202 163 165
b 137 169 133 168 171
b 138 11 10 49 12
b 139 43 44 42 80
b 140 172 173 136 171
b 141 176 177 213 175
b 142 178 177 179 215
b 143 180 143 181 179
b 144 46 45 83 7
b 145 184 221 183 147
b 146 189 190 188 226
b 147 48 10 49 47
b 148 191 190 192 154
b 149 197 235 198 196
b 150 13 51 14 12
b 151 52 51 14 53
b 152 206 207 168 205
b 153 208 209 245 207
b 154 210 247 211 173
b 155 641 642 602 638
b 156 216 218 215 253
b 157 220 221 183 219
b 158 222 185 223 258
b 159 57 19 56 58
b 160 228 229 264 227
b 161 643 642 644 604
b 162 231 230 267 232
b 163 234 235 196 233
b 164 237 236 238 199
b 165 15 14 16 53
b 166 241 239 203 242
b 167 243 279 242 205
b 168 244 245 280 207
b 169 246 209 245 282
b 170 250 213 251 249
b 171 255 254 256 291
b 172 259 223 258 260
b 173 17 18 55 16
b 174 67 29 66 68
b 175 270 271 305 269
b 176 273 274 308 272
b 177 69 70 31 68
b 178 276 277 275 311
b 179 71 33 72 70
b 180 283 319 284 282
b 181 286 322 285 249
b 182 287 323 288 251
b 183 292 256 291 328
b 184 295 332 260 296
b 185 77 112 76 37
b 186 20 19 21 58
b 187 315 352 316 314
b 188 318 319 282 317
b 189 637 636 598 638
b 190 329 367 328 330
b 191 84 85 47 120
b 192 607 608 606 568 646
b 193 622 623 583 621 661
b 194 342 305 341 343 381
b 195 344 383 345 307 343
b 196 575 537 574 576 614
b 197 348 349 311 347 386
b 198 577 616 578 576 539
b 199 351 352 314 350 389
b 200 579 578 541 580 618
b 201 29 66 27 31 68
b 202 353 352 316 354 391
b 203 628 588 626 630 590
b 204 357 395 356 320 358
b 205 93 56 55 91 128
b 206 362 324 363 361 400
b 207 364 326 363 365 402
b 208 582 583 621 544 581
b 209 366 367 404 328 365
b 210 619 620 580 618 658
b 211 371 332 372 409 370
b 212 373 372 411 334 374
b 213 452 451 486 420 453
b 214 375 336 413 374 376
b 215 585 623 584 661 547
b 216 587 588 626 548 549
b 217 377 378 338 415 376
b 218 380 418 341 379 381
b 219 382 383 420 343 381
b 220 96 60 97 131 95
b 221 613 612 574 614 652
b 222 611 650 612 610 572
b 223 398 359 396 361 400
b 224 401 435 363 402 400
b 225 101 65 102 100 136
b 226 403 404 437 365 402
b 227 405 406 439 367 404
b 228 573 612 574 535 572
b 229 436 435 437 402 472
b 230 104 138 102 68 175
b 231 109 110 144 74 108
b 232 408 407 442 409 370
b 233 427 459 494 389 425
b 234 605 644 606 566 604
b 235 412 445 411 413 374
b 236 599 598 600 561 638
b 237 151 115 154 150 188
b 238 419 418 451 420 381
b 239 421 422 383 420 453
b 240 423 424 456 347 386
b 241 166 130 167 204 165
b 242 595 557 596 594 634
b 243 429 461 462 430 391
b 244 591 592 630 590 553
b 245 112 76 37 110 147
b 246 660 620 621 661 658
b 247 461 462 430 496 391
b 248 465 499 463 466 500
b 249 471 435 472 506 470
b 250 571 570 610 533 572
b 251 478 477 442 513 409
b 252 567 606 568 566 529
b 253 123 124 158 122 87
b 254 492 528 493 491 458
b 255 488 486 453 454 489
b 256 498 534 499 497 463
b 257 503 468 502 539 504
b 258 518 483 448 519 556
b 259 526 525 563 489 602
b 260 531 530 532 494 496
b 261 137 138 102 173 136
b 262 657 617 655 618 658
b 263 538 502 537 576 539
b 264 551 552 549 513 515
b 265 559 521 558 561 522
b 266 543 542 507 544 581
b 267 540 578 539 504 541
b 268 209 245 207 171 282
b 269 536 537 574 500 535
b 270 149 185 186 150 40
b 271 653 615 655 614 652
b 272 10 49 12 47 7
b 273 642 644 604 602 638
b 274 527 528 491 566 604
b 275 174 138 175 211 173
b 276 132 133 97 131 168
b 277 45 44 5 83 7
b 278 516 517 480 515 553
b 279 182 183 145 181 219
b 280 187 186 224 150 188
b 281 193 155 192 230 120
b 282 33 72 70 35 31
b 283 194 195 158 122 232
b 284 49 12 50 47 7
b 285 200 201 238 162 199
b 286 202 163 201 165 203
b 287 129 130 95 165 58
b 288 51 14 12 50 53
b 289 212 213 175 211 249
b 290 505 504 506 470 541
b 291 14 12 50 16 53
b 292 214 177 213 215 251
b 293 54 55 91 16 53
b 294 509 475 439 547 546
b 295 221 183 147 219 330
b 296 508 507 544 437 472
b 297 225 224 188 226 261
b 298 218 181 219 215 253
b 299 59 60 95 21 58
b 300 235 198 236 196 233
b 301 229 264 265 227 230
b 302 501 502 537 466 500
b 303 61 23 60 97 62
b 304 254 256 291 290 253
b 305 247 248 284 211 173
b 306 161 126 160 162 199
b 307 252 288 215 251 253
b 308 262 297 226 261 263
b 309 266 265 230 267 301
b 310 268 269 303 267 232
b 311 274 308 309 272 275
b 312 271 306 305 269 272
b 313 483 448 416 519 556
b 314 278 279 313 277 242
b 315 636 598 596 634 638
b 316 281 245 280 282 317
b 317 485 451 522 484 486
b 318 72 73 70 35 31
b 319 289 290 325 288 253
b 320 18 19 56 55 16
b 321 479 445 480 411 515
b 322 75 76 37 110 74
b 323 298 297 335 263 299
b 324 300 265 299 301 337
b 325 340 339 303 341 379
b 326 302 339 303 267 301
b 327 76 37 110 147 74
b 328 304 305 269 303 341
b 329 37 110 147 35 74
b 330 310 309 275 311 347
b 331 312 313 277 349 311
b 332 79 42 80 115 150
b 333 319 284 320 282 317
b 334 321 322 285 320 358
b 335 323 324 288 251 361
b 336 475 406 439 547 546
b 337 327 291 326 328 365
b 338 82 83 80 115 118
b 339 333 332 372 296 334
b 340 85 47 122 87 120
b 341 632 593 592 630 594 634
b 342 468 502 539 504 470 466
b 343 623 584 583 621 661 547
b 344 359 322 396 358 361 400
b 345 459 493 458 494 389 425
b 346 23 60 97 62 21 25
b 347 155 192 118 154 230 120
b 348 617 655 616 578 618 658
b 349 588 626 548 549 630 590
b 350 608 606 568 570 610 646
b 351 394 432 395 356 393 430
b 352 407 442 476 409 370 258
b 353 414 448 446 413 415 376
b 354 424 456 458 347 386 425
b 355 422 383 345 420 453 454
b 356 308 309 345 307 272 275
b 357 584 583 621 661 547 546
b 358 462 430 497 463 496 391
b 359 143 144 108 181 179 140
b 360 548 549 512 476 630 590
b 361 525 563 562 523 489 602
b 362 598 600 596 561 634 638
b 363 530 532 568 494 529 496
b 364 650 612 652 610 572 646
b 365 615 655 616 576 614 652
b 366 163 201 128 162 165 203
b 367 552 549 513 590 515 553
b 368 98 133 97 62 63 100
b 369 183 147 145 181 219 330
b 370 12 50 47 16 53 7
b 371 185 186 223 150 40 258
b 372 44 5 83 42 80 7
b 373 521 558 561 522 484 519
b 374 190 192 154 188 227 226
b 375 517 480 446 515 553 554
b 376 198 236 160 196 199 233
b 377 195 158 122 196 232 233
b 378 50 47 87 16 53 7
b 379 387 349 350 386 389 425
b 380 563 562 523 600 489 602
b 381 239 201 238 203 242 275
b 382 245 280 207 171 282 317
b 383 248 284 285 211 249 173
b 384 64 27 65 25 63 100
b 385 124 158 122 87 90 196
b 386 66 27 65 102 31 68
b 387 264 265 227 230 263 299
b 388 256 291 290 328 219 253
b 389 562 523 600 561 489 602
b 390 73 70 35 74 108 31
b 391 279 313 277 314 242 205
b 392 280 207 316 171 282 317
b 393 19 56 55 16 21 58
b 394 306 305 269 307 343 272
b 395 5 83 42 80 40 7
b 396 477 442 512 476 513 409
b 397 324 325 288 363 251 361 400
b 398 336 335 299 413 374 337 376
b 399 83 42 80 115 118 40 7
b 400 332 372 409 370 260 296 334
b 401 593 592 630 554 594 556 634
b 402 406 439 367 404 547 546 330
b 403 432 395 356 393 430 396 466
b 404 110 147 145 144 35 74 108
b 405 309 345 307 272 275 311 347
b 406 557 558 596 594 519 556 634
b 407 130 167 204 131 95 165 58
b 408 583 621 661 544 581 547 546
b 409 442 512 476 513 409 370 258
b 410 542 507 544 581 506 541 580
b 411 534 499 497 463 535 533 572
b 412 445 480 446 411 515 413 374
b 413 532 568 570 494 529 496 533
b 414 523 600 561 522 486 489 602
b 415 42 80 115 118 150 40 7
b 416 177 213 179 140 175 215 251
b 417 439 367 404 547 546 437 330
b 418 378 338 339 415 376 379 416
b 419 291 290 326 328 365 219 253
b 420 186 223 224 150 40 188 258
b 421 47 122 87 16 53 7 120
b 422 138 102 68 175 211 173 136
b 423 207 316 168 171 205 282 317
b 424 644 606 566 604 646 602 638
b 425 223 224 150 40 188 258 260
b 426 56 55 91 16 128 21 58
b 427 620 621 661 581 580 618 658
b 428 126 91 90 128 160 162 199
b 429 55 91 16 53 128 21 58
b 430 236 238 160 196 199 233 272
b 431 115 118 154 150 40 188 7
b 432 158 122 87 90 196 232 233
b 433 352 316 314 350 354 389 391
b 434 70 35 74 108 140 31 68
b 435 528 493 491 458 566 529 604
b 436 313 277 349 314 350 242 205 311
b 437 265 227 230 263 299 267 301 337
b 438 27 65 102 31 68 25 63 100
b 439 224 150 40 188 226 261 258 260
b 440 456 491 458 347 386 425 454 489
b 441 418 451 484 420 341 379 381 416
b 442 65 102 31 68 25 63 100 136
b 443 435 363 437 402 472 506 470 400
b 444 592 630 590 553 554 594 556 634
b 445 305 269 303 307 341 343 381 272
b 446 502 537 576 539 504 470 466 500
b 447 612 574 614 652 535 610 572 646
b 448 655 616 578 576 614 652 618 658
b 449 395 356 393 430 396 320 358 466
b 450 297 335 226 261 263 299 296 334
b 451 167 204 131 95 165 58 168 205
b 452 338 339 415 301 337 376 379 416
b 453 284 285 320 211 249 173 282 317
b 454 499 497 463 466 500 535 533 572
b 455 616 578 576 539 614 652 618 658
b 456 290 326 325 288 328 365 219 253
b 457 448 446 413 415 376 416 519 556
b 458 383 345 420 453 307 343 381 454
b 459 277 349 314 350 242 205 275 311
b 460 192 118 154 188 227 230 226 120
b 461 213 179 140 175 215 251 211 249
b 462 372 409 370 411 260 296 334 374
b 463 367 404 547 546 437 328 365 330
b 464 356 393 430 396 320 358 466 354
b 465 404 547 546 437 328 365 402 330
b 466 393 430 396 320 358 466 354 391
b 467 60 97 62 131 95 21 58 25
b 468 507 544 581 437 472 506 541 580
b 469 549 512 476 513 630 590 515 553
b 470 480 446 411 515 553 554 413 374
b 471 322 285 396 320 358 249 361 400
b 472 621 661 544 581 547 546 580 618 658
b 473 600 596 561 522 486 634 489 602 638
b 474 493 491 458 566 494 529 604 389 425
b 475 147 145 144 35 74 108 181 219 330
b 476 133 97 62 131 63 100 136 168 171
b 477 144 35 74 108 181 179 140 219 330
b 478 204 131 95 165 58 203 242 168 205
b 479 201 238 128 162 199 165 203 242 275
b 480 558 596 561 522 484 594 519 556 634
b 481 326 325 288 363 328 365 402 219 253
b 482 118 154 150 40 188 227 230 226 7 120
b 483 122 87 90 16 53 196 7 120 232 233
b 484 102 31 68 175 211 173 25 63 100 136
b 485 606 568 570 566 529 604 610 646 602 638
b 486 430 497 463 396 320 358 466 496 354 391
b 487 35 74 108 181 179 140 31 68 219 330
b 488 181 179 140 31 68 219 215 253 330
b 489 578 576 539 614 652 504 541 580 618 658
b 490 91 90 16 53 128 160 162 199 21 58
b 491 537 574 576 539 614 504 470 466 500 535
b 492 451 522 484 486 420 453 341 379 381 416
b 493 512 476 513 630 590 409 370 515 553 258
b 494 339 303 415 267 301 337 376 341 379 416
b 495 269 303 267 307 341 343 381 232 233 272
b 496 349 314 350 242 205 275 311 347 386 389 425
b 497 316 314 350 168 171 205 282 317 354 389 391
b 498 150 40 188 227 230 226 261 258 260 7 120
b 499 544 581 547 546 437 472 506 541 580 618 658
b 500 630 590 409 370 515 553 554 258 594 556 634
b 501 285 396 320 358 211 249 361 400 173 282 317
b 502 345 420 453 307 343 381 272 275 311 347 454
b 503 325 288 363 328 365 402 219 251 253 361 400
b 504 335 226 261 263 299 413 296 334 374 337 376
b 505 288 363 328 365 402 219 215 251 253 361 400
b 506 446 411 515 553 554 413 374 415 376 416 519 556
b 507 97 62 131 95 21 58 25 63 100 136 168 171
b 508 491 458 566 494 529 604 347 386 389 425 454 489
b 509 596 561 522 484 486 594 519 556 634 489 602 638
b 510 179 140 31 68 175 219 215 251 253 330 211 249
b 511 238 128 160 162 196 199 165 203 233 272 242 275
b 512 568 570 566 494 529 604 610 496 533 646 602 638
b 513 570 566 494 529 604 610 496 533 572 646 602 638
b 514 497 463 396 320 358 466 500 535 496 533 572 354 391
b 515 547 546 437 328 365 402 472 506 541 580 618 658 330
b 516 227 230 226 261 263 299 258 260 267 301 337 7 120
b 517 574 576 539 614 652 504 470 466 500 535 610 572 646
b 518 230 226 261 263 299 258 260 267 301 337 7 120 232
b 519 409 370 411 515 553 554 258 260 296 334 374 594 556 634
b 520 90 16 53 128 160 162 196 199 21 58 7 120 232 233
b 521 363 437 328 365 402 472 506 470 219 215 251 253 361 400
b 522 131 95 165 21 58 203 242 25 63 100 136 168 171 205
b 523 303 415 267 301 337 376 307 341 343 379 381 416 232 233 272
b 524 31 68 175 219 215 251 253 330 211 249 173 25 63 100 136
b 525 314 350 242 168 171 205 275 282 311 317 347 354 386 389 391 425
b 526 128 160 162 196 199 165 21 58 203 7 120 232 233 272 242 275
b 527 576 539 614 652 504 470 541 580 618 658 466 500 535 610 572 646
b 528 504 506 470 541 580 618 658 466 500 535 610 572 646
b 529 522 484 486 420 453 594 341 379 381 416 519 556 634 489 602 638
b 530 486 420 453 594 341 379 381 416 519 556 634 454 489 602 638
b 531 226 261 263 299 413 258 260 296 334 374 267 301 337 376 7 120 232
b 532 566 494 529 604 610 496 533 572 646 347 386 389 425 454 489 602 638
b 533 411 515 553 554 413 258 260 296 334 374 415 376 594 416 519 556 634
b 534 437 328 365 402 472 506 470 541 580 618 658 219 215 251 253 330 361 400
b 535 165 21 58 203 7 120 232 233 272 242 25 63 100 136 168 171 205 275
b 536 396 320 358 211 249 361 400 466 500 535 173 496 533 572 282 317 354 391
b 537 506 470 541 580 618 658 219 215 251 253 330 361 400 466 500 535 610 572 646
b 538 413 258 260 296 334 374 415 267 301 337 376 594 416 519 556 634 7 120 232
b 539 420 453 594 307 341 343 379 381 416 519 556 634 272 275 311 347 454 489 602 638
b 540 415 267 301 337 376 594 307 341 343 379 381 416 519 556 634 7 120 232 233 272
b 541 219 215 251 253 330 211 249 361 400 466 500 535 173 610 572 646 25 63 100 136
b 542 211 249 361 400 466 500 535 173 610 496 533 572 646 25 63 100 136 282 317 354 391
b 543 173 610 496 533 572 646 25 63 100 136 171 282 317 354 391
b 544 594 307 341 343 379 381 416 519 556 634 7 120 232 233 272 275 311 347 454 489 602 638
b 545 7 120 232 233 272 242 25 63 100 136 168 171 205 275 311 347 454 489 602 638
b 546 610 496 533 572 646 25 63 100 136 171 282 317 347 354 386 389 391 425 454 489 602 638
b 547 242 25 63 100 136 168 171 205 275 282 311 317 347 354 386 389 391 425 454 489 602 638
1 93
93 128
128 395
395 372
395 399
399 415
415 431
431 482
482 498
498 516
516 518
518 531
531 538
538 533
538 540
540 544
544 539
540 523
539 530
530 529
533 519
544 545
545 547
547 546
545 535
547 525
546 543
543 542
542 536
542 541
546 532
541 537
537 534
534 521
535 522
537 528
541 524
528 527
527 517
535 526
536 514
534 515
532 513
533 506
526 511
526 520
513 512
525 497
525 496
536 501
531 504
532 508
521 505
522 507
524 510
505 503
539 502
529 509
519 500
524 484
527 489
517 491
514 486
515 499
520 490
512 485
523 495
523 494
529 492
522 478
511 479
520 483
508 474
507 476
510 488
503 481
509 473
509 480
519 462
498 439
516 437
482 460
521 443
517 447
514 454
515 465
506 457
506 470
496 459
501 471
501 453
504 450
508 440
507 467
510 461
502 458
500 444
500 493
493 469
484 442
489 455
442 438
455 448
491 446
486 466
466 464
464 449
499 472
499 468
495 445
494 452
492 441
478 451
488 487
487 477
481 456
477 475
465 463
459 436
493 409
449 403
472 408
472 427
468 410
461 416
452 418
451 407
487 434
456 419
444 401
475 404
463 417
417 402
511 430
512 413
497 423
497 433
504 398
503 397
502 405
484 422
490 429
490 428
429 426
485 424
483 421
483 432
474 435
473 414
462 400
480 406
439 425
425 420
454 411
470 412
438 384
448 348
448 365
446 342
445 394
477 359
475 369
436 391
409 396
409 352
438 386
434 390
419 388
401 341
467 346
430 376
413 363
403 351
423 392
440 354
405 356
408 357
426 393
421 378
458 355
432 377
432 385
414 389
420 371
469 367
469 360
392 382
357 343
378 370
389 380
380 361
496 379
486 358
485 350
479 366
479 381
474 345
476 368
473 362
480 373
437 387
460 374
460 347
447 364
457 353
470 375
471 344
453 383
442 225
455 198
446 263
446 302
449 204
468 296
445 194
445 328
441 218
441 238
456 319
463 209
436 331
408 208
427 210
427 246
410 266
416 292
418 217
407 241
407 287
419 337
404 231
404 329
402 336
402 227
433 199
433 202
398 214
397 206
397 335
405 330
422 230
422 261
422 275
429 293
428 306
426 205
424 234
424 273
421 340
435 254
435 274
400 211
400 339
406 242
420 280
411 256
412 235
412 321
348 262
365 271
342 257
394 312
369 279
369 295
391 314
396 251
352 232
386 201
390 318
388 304
346 303
376 300
363 260
354 240
356 311
393 320
355 239
385 253
371 270
367 264
382 268
382 316
450 308
343 193
358 247
360 349
350 192
370 291
370 284
366 286
377 283
361 259
345 233
450 323
467 220
362 315
362 236
373 265
387 301
467 299
461 289
347 281
458 219
364 222
458 195
375 278
344 223
444 244
383 305
329 327
336 294
318 282
399 338
247 243
349 203
349 216
291 288
284 272
327 245
327 322
528 290
415 332
513 250
372 277
496 197
343 215
505 307
431 237
489 267
489 200
491 196
491 269
485 252
495 310
494 325
494 326
492 213
492 317
479 285
476 276
488 298
530 255
481 207
462 212
439 297
437 309
437 324
443 224
443 229
443 249
447 221
447 228
454 248
465 226
457 313
313 258
471 334
453 333
440 86
440 106
461 170
466 55
464 44
441 65
441 84
463 190
403 71
408 120
372 139
416 141
416 142
434 66
434 177
401 110
430 164
402 47
423 152
433 54
433 187
405 39
428 108
428 111
424 127
400 184
425 172
384 61
342 91
342 92
359 124
359 143
369 125
391 167
352 48
352 75
388 183
341 32
341 34
346 49
346 43
351 70
354 87
518 162
393 159
393 186
355 51
543 140
385 42
385 134
371 158
382 168
360 113
350 56
350 96
381 166
361 116
368 57
373 115
374 146
374 148
347 97
364 133
364 135
353 81
375 99
296 95
246 60
287 50
329 123
336 74
335 182
230 62
230 122
294 112
205 46
294 98
273 130
273 155
273 161
340 37
340 191
340 102
274 100
321 80
262 31
271 129
312 175
295 145
295 157
251 78
201 83
201 94
201 174
304 171
300 149
300 163
338 90
291 165
286 136
283 132
259 101
233 67
233 88
315 30
315 68
315 189
265 105
301 160
281 40
223 45
223 58
223 59
282 109
282 118
282 179
243 69
305 154
203 36
203 38
203 76
277 35
216 79
277 144
260 107
272 117
320 173
215 41
245 77
272 147
240 52
311 176
264 121
270 126
298 156
264 114
255 104
268 153
268 169
248 89
313 82
258 103
333 180
333 188
272 138
380 64
41 33
332 85
417 73
288 151
288 150
245 185
185 131
379 53
476 119
476 137
462 63
443 72
459 178
471 181
155 16
16 15
166 23
42 3
48 29
29 27
124 9
66 5
5 4
295 26
26 24
338 28
156 22
135 18
18 17
126 25
25 6
119 8
79 14
33 20
117 2
131 11
237 13
13 12
90 7
137 19
93 21
21 10
END

EOF
